\ Model assignment
\ LP format - for model browsing. Use MPS format to capture full model detail.
Minimize
 
Subject To
 (18)[1]: 2 x[1,1] + 2 x[2,1] + 2 x[3,1] + 2 x[4,1] + 2 x[5,1] + 2 x[6,1]
   + 2 x[7,1] + 2 x[9,1] + 2 x[10,1] + 2 x[11,1] + 2 x[12,1] + 2 x[13,1]
   + 2 x[14,1] + 2 x[15,1] + 2 x[16,1] + 2 x[17,1] + 2 x[18,1] + 2 x[19,1]
   + 2 x[20,1] + 2 x[21,1] + 2 x[22,1] + 2 x[23,1] + 2 x[24,1] + 2 x[25,1]
   + 2 x[26,1] + 2 x[27,1] + 2 x[28,1] + 2 x[29,1] + 2 x[30,1] + 2 x[31,1]
   + 2 x[32,1] + 2 x[33,1] + 2 x[34,1] + 2 x[35,1] + 2 x[36,1] + 2 x[37,1]
   + 2 x[38,1] + 2 x[39,1] + 2 x[40,1] + 2 x[41,1] + 2 x[42,1] + 2 x[43,1]
   + 2 x[44,1] + 2 x[45,1] + 2 x[46,1] + 2 x[47,1] + 2 x[48,1] + 2 x[49,1]
   + 2 x[50,1] + 2 x[51,1] + 2 x[52,1] + 2 x[53,1] + 2 x[54,1] + 2 x[55,1]
   + 2 x[56,1] + 2 x[57,1] + 2 x[58,1] + 2 x[59,1] + 2 x[60,1] + 2 x[61,1]
   + 2 x[62,1] + 2 x[63,1] >= 120
 (19)[0]: x[0,1] = 1
 (19)[1]: x[1,1] = 1
 (19)[2]: x[2,1] = 1
 (19)[3]: x[3,1] = 1
 (19)[4]: x[4,1] = 1
 (19)[5]: x[5,1] = 1
 (19)[6]: x[6,1] = 1
 (19)[7]: x[7,1] = 1
 (19)[8]: x[8,1] = 1
 (19)[9]: x[9,1] = 1
 (19)[10]: x[10,1] = 1
 (19)[11]: x[11,1] = 1
 (19)[12]: x[12,1] = 1
 (19)[13]: x[13,1] = 1
 (19)[14]: x[14,1] = 1
 (19)[15]: x[15,1] = 1
 (19)[16]: x[16,1] = 1
 (19)[17]: x[17,1] = 1
 (19)[18]: x[18,1] = 1
 (19)[19]: x[19,1] = 1
 (19)[20]: x[20,1] = 1
 (19)[21]: x[21,1] = 1
 (19)[22]: x[22,1] = 1
 (19)[23]: x[23,1] = 1
 (19)[24]: x[24,1] = 1
 (19)[25]: x[25,1] = 1
 (19)[26]: x[26,1] = 1
 (19)[27]: x[27,1] = 1
 (19)[28]: x[28,1] = 1
 (19)[29]: x[29,1] = 1
 (19)[30]: x[30,1] = 1
 (19)[31]: x[31,1] = 1
 (19)[32]: x[32,1] = 1
 (19)[33]: x[33,1] = 1
 (19)[34]: x[34,1] = 1
 (19)[35]: x[35,1] = 1
 (19)[36]: x[36,1] = 1
 (19)[37]: x[37,1] = 1
 (19)[38]: x[38,1] = 1
 (19)[39]: x[39,1] = 1
 (19)[40]: x[40,1] = 1
 (19)[41]: x[41,1] = 1
 (19)[42]: x[42,1] = 1
 (19)[43]: x[43,1] = 1
 (19)[44]: x[44,1] = 1
 (19)[45]: x[45,1] = 1
 (19)[46]: x[46,1] = 1
 (19)[47]: x[47,1] = 1
 (19)[48]: x[48,1] = 1
 (19)[49]: x[49,1] = 1
 (19)[50]: x[50,1] = 1
 (19)[51]: x[51,1] = 1
 (19)[52]: x[52,1] = 1
 (19)[53]: x[53,1] = 1
 (19)[54]: x[54,1] = 1
 (19)[55]: x[55,1] = 1
 (19)[56]: x[56,1] = 1
 (19)[57]: x[57,1] = 1
 (19)[58]: x[58,1] = 1
 (19)[59]: x[59,1] = 1
 (19)[60]: x[60,1] = 1
 (19)[61]: x[61,1] = 1
 (19)[62]: x[62,1] = 1
 (19)[63]: x[63,1] = 1
 (20)[30,46]: - 7 x[30,1] + 7 x[46,1] + 2 a[30,46] <= 2
 (20)[44,45]: - 7 x[44,1] + 7 x[45,1] + 2 a[44,45] <= 2
 (20)[25,41]: - 7 x[25,1] + 7 x[41,1] + 2 a[25,41] <= 2
 (20)[35,51]: - 7 x[35,1] + 7 x[51,1] + 2 a[35,51] <= 2
 (20)[8,9]: - 7 x[8,1] + 7 x[9,1] + 2 a[8,9] <= 2
 (20)[40,41]: - 7 x[40,1] + 7 x[41,1] + 2 a[40,41] <= 2
 (20)[21,37]: - 7 x[21,1] + 7 x[37,1] + 2 a[21,37] <= 2
 (20)[31,47]: - 7 x[31,1] + 7 x[47,1] + 2 a[31,47] <= 2
 (20)[27,43]: - 7 x[27,1] + 7 x[43,1] + 2 a[27,43] <= 2
 (20)[41,42]: - 7 x[41,1] + 7 x[42,1] + 2 a[41,42] <= 2
 (20)[18,19]: - 7 x[18,1] + 7 x[19,1] + 2 a[18,19] <= 2
 (20)[14,15]: - 7 x[14,1] + 7 x[15,1] + 2 a[14,15] <= 2
 (20)[9,10]: - 7 x[9,1] + 7 x[10,1] + 2 a[9,10] <= 2
 (20)[5,21]: - 7 x[5,1] + 7 x[21,1] + 2 a[5,21] <= 2
 (20)[1,17]: - 7 x[1,1] + 7 x[17,1] + 2 a[1,17] <= 2
 (20)[42,43]: - 7 x[42,1] + 7 x[43,1] + 2 a[42,43] <= 2
 (20)[33,49]: - 7 x[33,1] + 7 x[49,1] + 2 a[33,49] <= 2
 (20)[38,39]: - 7 x[38,1] + 7 x[39,1] + 2 a[38,39] <= 2
 (20)[48,49]: - 7 x[48,1] + 7 x[49,1] + 2 a[48,49] <= 2
 (20)[29,45]: - 7 x[29,1] + 7 x[45,1] + 2 a[29,45] <= 2
 (20)[16,17]: - 7 x[16,1] + 7 x[17,1] + 2 a[16,17] <= 2
 (20)[7,23]: - 7 x[7,1] + 7 x[23,1] + 2 a[7,23] <= 2
 (20)[12,13]: - 7 x[12,1] + 7 x[13,1] + 2 a[12,13] <= 2
 (20)[22,23]: - 7 x[22,1] + 7 x[23,1] + 2 a[22,23] <= 2
 (20)[3,19]: - 7 x[3,1] + 7 x[19,1] + 2 a[3,19] <= 2
 (20)[49,50]: - 7 x[49,1] + 7 x[50,1] + 2 a[49,50] <= 2
 (20)[40,56]: - 7 x[40,1] + 7 x[56,1] + 2 a[40,56] <= 2
 (20)[13,14]: - 7 x[13,1] + 7 x[14,1] + 2 a[13,14] <= 2
 (20)[45,46]: - 7 x[45,1] + 7 x[46,1] + 2 a[45,46] <= 2
 (20)[55,56]: - 7 x[55,1] + 7 x[56,1] + 2 a[55,56] <= 2
 (20)[36,52]: - 7 x[36,1] + 7 x[52,1] + 2 a[36,52] <= 2
 (20)[50,51]: - 7 x[50,1] + 7 x[51,1] + 2 a[50,51] <= 2
 (20)[51,52]: - 7 x[51,1] + 7 x[52,1] + 2 a[51,52] <= 2
 (20)[32,48]: - 7 x[32,1] + 7 x[48,1] + 2 a[32,48] <= 2
 (20)[46,47]: - 7 x[46,1] + 7 x[47,1] + 2 a[46,47] <= 2
 (20)[23,24]: - 7 x[23,1] + 7 x[24,1] + 2 a[23,24] <= 2
 (20)[4,20]: - 7 x[4,1] + 7 x[20,1] + 2 a[4,20] <= 2
 (20)[14,30]: - 7 x[14,1] + 7 x[30,1] + 2 a[14,30] <= 2
 (20)[19,20]: - 7 x[19,1] + 7 x[20,1] + 2 a[19,20] <= 2
 (20)[10,26]: - 7 x[10,1] + 7 x[26,1] + 2 a[10,26] <= 2
 (20)[24,25]: - 7 x[24,1] + 7 x[25,1] + 2 a[24,25] <= 2
 (20)[56,57]: - 7 x[56,1] + 7 x[57,1] + 2 a[56,57] <= 2
 (20)[37,53]: - 7 x[37,1] + 7 x[53,1] + 2 a[37,53] <= 2
 (20)[47,63]: - 7 x[47,1] + 7 x[63,1] + 2 a[47,63] <= 2
 (20)[6,22]: - 7 x[6,1] + 7 x[22,1] + 2 a[6,22] <= 2
 (20)[20,21]: - 7 x[20,1] + 7 x[21,1] + 2 a[20,21] <= 2
 (20)[52,53]: - 7 x[52,1] + 7 x[53,1] + 2 a[52,53] <= 2
 (20)[43,59]: - 7 x[43,1] + 7 x[59,1] + 2 a[43,59] <= 2
 (20)[57,58]: - 7 x[57,1] + 7 x[58,1] + 2 a[57,58] <= 2
 (20)[38,54]: - 7 x[38,1] + 7 x[54,1] + 2 a[38,54] <= 2
 (20)[39,55]: - 7 x[39,1] + 7 x[55,1] + 2 a[39,55] <= 2
 (20)[53,54]: - 7 x[53,1] + 7 x[54,1] + 2 a[53,54] <= 2
 (20)[30,31]: - 7 x[30,1] + 7 x[31,1] + 2 a[30,31] <= 2
 (20)[34,50]: - 7 x[34,1] + 7 x[50,1] + 2 a[34,50] <= 2
 (20)[11,27]: - 7 x[11,1] + 7 x[27,1] + 2 a[11,27] <= 2
 (20)[25,26]: - 7 x[25,1] + 7 x[26,1] + 2 a[25,26] <= 2
 (20)[26,27]: - 7 x[26,1] + 7 x[27,1] + 2 a[26,27] <= 2
 (20)[5,4]: 7 x[4,1] - 7 x[5,1] + 2 a[5,4] <= 2
 (20)[21,22]: - 7 x[21,1] + 7 x[22,1] + 2 a[21,22] <= 2
 (20)[12,28]: - 7 x[12,1] + 7 x[28,1] + 2 a[12,28] <= 2
 (20)[44,60]: - 7 x[44,1] + 7 x[60,1] + 2 a[44,60] <= 2
 (20)[1,0]: 7 x[0,1] - 7 x[1,1] + 2 a[1,0] <= 2
 (20)[17,18]: - 7 x[17,1] + 7 x[18,1] + 2 a[17,18] <= 2
 (20)[27,28]: - 7 x[27,1] + 7 x[28,1] + 2 a[27,28] <= 2
 (20)[8,24]: - 7 x[8,1] + 7 x[24,1] + 2 a[8,24] <= 2
 (20)[54,55]: - 7 x[54,1] + 7 x[55,1] + 2 a[54,55] <= 2
 (20)[45,61]: - 7 x[45,1] + 7 x[61,1] + 2 a[45,61] <= 2
 (20)[60,61]: - 7 x[60,1] + 7 x[61,1] + 2 a[60,61] <= 2
 (20)[41,57]: - 7 x[41,1] + 7 x[57,1] + 2 a[41,57] <= 2
 (20)[18,34]: - 7 x[18,1] + 7 x[34,1] + 2 a[18,34] <= 2
 (20)[2,1]: 7 x[1,1] - 7 x[2,1] + 2 a[2,1] <= 2
 (20)[28,29]: - 7 x[28,1] + 7 x[29,1] + 2 a[28,29] <= 2
 (20)[9,25]: - 7 x[9,1] + 7 x[25,1] + 2 a[9,25] <= 2
 (20)[19,35]: - 7 x[19,1] + 7 x[35,1] + 2 a[19,35] <= 2
 (20)[3,2]: 7 x[2,1] - 7 x[3,1] + 2 a[3,2] <= 2
 (20)[15,31]: - 7 x[15,1] + 7 x[31,1] + 2 a[15,31] <= 2
 (20)[29,30]: - 7 x[29,1] + 7 x[30,1] + 2 a[29,30] <= 2
 (20)[61,62]: - 7 x[61,1] + 7 x[62,1] + 2 a[61,62] <= 2
 (20)[42,58]: - 7 x[42,1] + 7 x[58,1] + 2 a[42,58] <= 2
 (20)[62,63]: - 7 x[62,1] + 7 x[63,1] + 2 a[62,63] <= 2
 (20)[58,59]: - 7 x[58,1] + 7 x[59,1] + 2 a[58,59] <= 2
 (20)[4,3]: 7 x[3,1] - 7 x[4,1] + 2 a[4,3] <= 2
 (20)[35,36]: - 7 x[35,1] + 7 x[36,1] + 2 a[35,36] <= 2
 (20)[16,32]: - 7 x[16,1] + 7 x[32,1] + 2 a[16,32] <= 2
 (20)[26,42]: - 7 x[26,1] + 7 x[42,1] + 2 a[26,42] <= 2
 (20)[22,38]: - 7 x[22,1] + 7 x[38,1] + 2 a[22,38] <= 2
 (20)[36,37]: - 7 x[36,1] + 7 x[37,1] + 2 a[36,37] <= 2
 (20)[17,33]: - 7 x[17,1] + 7 x[33,1] + 2 a[17,33] <= 2
 (20)[6,5]: 7 x[5,1] - 7 x[6,1] + 2 a[6,5] <= 2
 (20)[32,33]: - 7 x[32,1] + 7 x[33,1] + 2 a[32,33] <= 2
 (20)[13,29]: - 7 x[13,1] + 7 x[29,1] + 2 a[13,29] <= 2
 (20)[59,60]: - 7 x[59,1] + 7 x[60,1] + 2 a[59,60] <= 2
 (20)[10,11]: - 7 x[10,1] + 7 x[11,1] + 2 a[10,11] <= 2
 (20)[46,62]: - 7 x[46,1] + 7 x[62,1] + 2 a[46,62] <= 2
 (20)[23,39]: - 7 x[23,1] + 7 x[39,1] + 2 a[23,39] <= 2
 (20)[37,38]: - 7 x[37,1] + 7 x[38,1] + 2 a[37,38] <= 2
 (20)[28,44]: - 7 x[28,1] + 7 x[44,1] + 2 a[28,44] <= 2
 (20)[7,6]: 7 x[6,1] - 7 x[7,1] + 2 a[7,6] <= 2
 (20)[33,34]: - 7 x[33,1] + 7 x[34,1] + 2 a[33,34] <= 2
 (20)[43,44]: - 7 x[43,1] + 7 x[44,1] + 2 a[43,44] <= 2
 (20)[24,40]: - 7 x[24,1] + 7 x[40,1] + 2 a[24,40] <= 2
 (20)[8,7]: 7 x[7,1] - 7 x[8,1] + 2 a[8,7] <= 2
 (20)[39,40]: - 7 x[39,1] + 7 x[40,1] + 2 a[39,40] <= 2
 (20)[20,36]: - 7 x[20,1] + 7 x[36,1] + 2 a[20,36] <= 2
 (20)[34,35]: - 7 x[34,1] + 7 x[35,1] + 2 a[34,35] <= 2
 (20)[11,12]: - 7 x[11,1] + 7 x[12,1] + 2 a[11,12] <= 2
 (20)[2,18]: - 7 x[2,1] + 7 x[18,1] + 2 a[2,18] <= 2
 (21)[41,40]: 9 x[40,1] - 9 x[41,1] + 2 b[41,40] <= 2
 (21)[18,17]: 9 x[17,1] - 9 x[18,1] + 2 b[18,17] <= 2
 (21)[14,13]: 9 x[13,1] - 9 x[14,1] + 2 b[14,13] <= 2
 (21)[28,12]: 9 x[12,1] - 9 x[28,1] + 2 b[28,12] <= 2
 (21)[9,8]: 9 x[8,1] - 9 x[9,1] + 2 b[9,8] <= 2
 (21)[19,18]: 9 x[18,1] - 9 x[19,1] + 2 b[19,18] <= 2
 (21)[24,8]: 9 x[8,1] - 9 x[24,1] + 2 b[24,8] <= 2
 (21)[15,14]: 9 x[14,1] - 9 x[15,1] + 2 b[15,14] <= 2
 (21)[61,45]: 9 x[45,1] - 9 x[61,1] + 2 b[61,45] <= 2
 (21)[42,41]: 9 x[41,1] - 9 x[42,1] + 2 b[42,41] <= 2
 (21)[52,51]: 9 x[51,1] - 9 x[52,1] + 2 b[52,51] <= 2
 (21)[57,41]: 9 x[41,1] - 9 x[57,1] + 2 b[57,41] <= 2
 (21)[62,46]: 9 x[46,1] - 9 x[62,1] + 2 b[62,46] <= 2
 (21)[58,42]: 9 x[42,1] - 9 x[58,1] + 2 b[58,42] <= 2
 (21)[35,19]: 9 x[19,1] - 9 x[35,1] + 2 b[35,19] <= 2
 (21)[26,25]: 9 x[25,1] - 9 x[26,1] + 2 b[26,25] <= 2
 (21)[31,15]: 9 x[15,1] - 9 x[31,1] + 2 b[31,15] <= 2
 (21)[22,21]: 9 x[21,1] - 9 x[22,1] + 2 b[22,21] <= 2
 (21)[36,20]: 9 x[20,1] - 9 x[36,1] + 2 b[36,20] <= 2
 (21)[17,16]: 9 x[16,1] - 9 x[17,1] + 2 b[17,16] <= 2
 (21)[49,48]: 9 x[48,1] - 9 x[49,1] + 2 b[49,48] <= 2
 (21)[63,47]: 9 x[47,1] - 9 x[63,1] + 2 b[63,47] <= 2
 (21)[32,16]: 9 x[16,1] - 9 x[32,1] + 2 b[32,16] <= 2
 (21)[13,12]: 9 x[12,1] - 9 x[13,1] + 2 b[13,12] <= 2
 (21)[59,43]: 9 x[43,1] - 9 x[59,1] + 2 b[59,43] <= 2
 (21)[55,54]: 9 x[54,1] - 9 x[55,1] + 2 b[55,54] <= 2
 (21)[50,49]: 9 x[49,1] - 9 x[50,1] + 2 b[50,49] <= 2
 (21)[51,50]: 9 x[50,1] - 9 x[51,1] + 2 b[51,50] <= 2
 (21)[46,45]: 9 x[45,1] - 9 x[46,1] + 2 b[46,45] <= 2
 (21)[23,22]: 9 x[22,1] - 9 x[23,1] + 2 b[23,22] <= 2
 (21)[37,21]: 9 x[21,1] - 9 x[37,1] + 2 b[37,21] <= 2
 (21)[33,17]: 9 x[17,1] - 9 x[33,1] + 2 b[33,17] <= 2
 (21)[43,27]: 9 x[27,1] - 9 x[43,1] + 2 b[43,27] <= 2
 (21)[24,23]: 9 x[23,1] - 9 x[24,1] + 2 b[24,23] <= 2
 (21)[56,55]: 9 x[55,1] - 9 x[56,1] + 2 b[56,55] <= 2
 (21)[29,13]: 9 x[13,1] - 9 x[29,1] + 2 b[29,13] <= 2
 (21)[39,23]: 9 x[23,1] - 9 x[39,1] + 2 b[39,23] <= 2
 (21)[20,19]: 9 x[19,1] - 9 x[20,1] + 2 b[20,19] <= 2
 (21)[34,18]: 9 x[18,1] - 9 x[34,1] + 2 b[34,18] <= 2
 (21)[57,56]: 9 x[56,1] - 9 x[57,1] + 2 b[57,56] <= 2
 (21)[53,52]: 9 x[52,1] - 9 x[53,1] + 2 b[53,52] <= 2
 (21)[30,29]: 9 x[29,1] - 9 x[30,1] + 2 b[30,29] <= 2
 (21)[44,28]: 9 x[28,1] - 9 x[44,1] + 2 b[44,28] <= 2
 (21)[25,24]: 9 x[24,1] - 9 x[25,1] + 2 b[25,24] <= 2
 (21)[40,24]: 9 x[24,1] - 9 x[40,1] + 2 b[40,24] <= 2
 (21)[21,20]: 9 x[20,1] - 9 x[21,1] + 2 b[21,20] <= 2
 (21)[31,30]: 9 x[30,1] - 9 x[31,1] + 2 b[31,30] <= 2
 (21)[27,26]: 9 x[26,1] - 9 x[27,1] + 2 b[27,26] <= 2
 (21)[41,25]: 9 x[25,1] - 9 x[41,1] + 2 b[41,25] <= 2
 (21)[18,2]: 9 x[2,1] - 9 x[18,1] + 2 b[18,2] <= 2
 (21)[54,53]: 9 x[53,1] - 9 x[54,1] + 2 b[54,53] <= 2
 (21)[60,59]: 9 x[59,1] - 9 x[60,1] + 2 b[60,59] <= 2
 (21)[47,31]: 9 x[31,1] - 9 x[47,1] + 2 b[47,31] <= 2
 (21)[28,27]: 9 x[27,1] - 9 x[28,1] + 2 b[28,27] <= 2
 (21)[42,26]: 9 x[26,1] - 9 x[42,1] + 2 b[42,26] <= 2
 (21)[38,22]: 9 x[22,1] - 9 x[38,1] + 2 b[38,22] <= 2
 (21)[48,32]: 9 x[32,1] - 9 x[48,1] + 2 b[48,32] <= 2
 (21)[29,28]: 9 x[28,1] - 9 x[29,1] + 2 b[29,28] <= 2
 (21)[5,6]: - 9 x[5,1] + 9 x[6,1] + 2 b[5,6] <= 2
 (21)[61,60]: 9 x[60,1] - 9 x[61,1] + 2 b[61,60] <= 2
 (21)[1,2]: - 9 x[1,1] + 9 x[2,1] + 2 b[1,2] <= 2
 (21)[62,61]: 9 x[61,1] - 9 x[62,1] + 2 b[62,61] <= 2
 (21)[22,6]: 9 x[6,1] - 9 x[22,1] + 2 b[22,6] <= 2
 (21)[58,57]: 9 x[57,1] - 9 x[58,1] + 2 b[58,57] <= 2
 (21)[35,34]: 9 x[34,1] - 9 x[35,1] + 2 b[35,34] <= 2
 (21)[49,33]: 9 x[33,1] - 9 x[49,1] + 2 b[49,33] <= 2
 (21)[45,29]: 9 x[29,1] - 9 x[45,1] + 2 b[45,29] <= 2
 (21)[55,39]: 9 x[39,1] - 9 x[55,1] + 2 b[55,39] <= 2
 (21)[2,3]: - 9 x[2,1] + 9 x[3,1] + 2 b[2,3] <= 2
 (21)[36,35]: 9 x[35,1] - 9 x[36,1] + 2 b[36,35] <= 2
 (21)[63,62]: 9 x[62,1] - 9 x[63,1] + 2 b[63,62] <= 2
 (21)[51,35]: 9 x[35,1] - 9 x[51,1] + 2 b[51,35] <= 2
 (21)[46,30]: 9 x[30,1] - 9 x[46,1] + 2 b[46,30] <= 2
 (21)[23,7]: 9 x[7,1] - 9 x[23,1] + 2 b[23,7] <= 2
 (21)[3,4]: - 9 x[3,1] + 9 x[4,1] + 2 b[3,4] <= 2
 (21)[59,58]: 9 x[58,1] - 9 x[59,1] + 2 b[59,58] <= 2
 (21)[19,3]: 9 x[3,1] - 9 x[19,1] + 2 b[19,3] <= 2
 (21)[10,9]: 9 x[9,1] - 9 x[10,1] + 2 b[10,9] <= 2
 (21)[56,40]: 9 x[40,1] - 9 x[56,1] + 2 b[56,40] <= 2
 (21)[37,36]: 9 x[36,1] - 9 x[37,1] + 2 b[37,36] <= 2
 (21)[47,46]: 9 x[46,1] - 9 x[47,1] + 2 b[47,46] <= 2
 (21)[20,4]: 9 x[4,1] - 9 x[20,1] + 2 b[20,4] <= 2
 (21)[52,36]: 9 x[36,1] - 9 x[52,1] + 2 b[52,36] <= 2
 (21)[33,32]: 9 x[32,1] - 9 x[33,1] + 2 b[33,32] <= 2
 (21)[43,42]: 9 x[42,1] - 9 x[43,1] + 2 b[43,42] <= 2
 (21)[4,5]: - 9 x[4,1] + 9 x[5,1] + 2 b[4,5] <= 2
 (21)[38,37]: 9 x[37,1] - 9 x[38,1] + 2 b[38,37] <= 2
 (21)[39,38]: 9 x[38,1] - 9 x[39,1] + 2 b[39,38] <= 2
 (21)[53,37]: 9 x[37,1] - 9 x[53,1] + 2 b[53,37] <= 2
 (21)[0,1]: - 9 x[0,1] + 9 x[1,1] + 2 b[0,1] <= 2
 (21)[34,33]: 9 x[33,1] - 9 x[34,1] + 2 b[34,33] <= 2
 (21)[30,14]: 9 x[14,1] - 9 x[30,1] + 2 b[30,14] <= 2
 (21)[11,10]: 9 x[10,1] - 9 x[11,1] + 2 b[11,10] <= 2
 (21)[25,9]: 9 x[9,1] - 9 x[25,1] + 2 b[25,9] <= 2
 (21)[26,10]: 9 x[10,1] - 9 x[26,1] + 2 b[26,10] <= 2
 (21)[6,7]: - 9 x[6,1] + 9 x[7,1] + 2 b[6,7] <= 2
 (21)[21,5]: 9 x[5,1] - 9 x[21,1] + 2 b[21,5] <= 2
 (21)[12,11]: 9 x[11,1] - 9 x[12,1] + 2 b[12,11] <= 2
 (21)[44,43]: 9 x[43,1] - 9 x[44,1] + 2 b[44,43] <= 2
 (21)[17,1]: 9 x[1,1] - 9 x[17,1] + 2 b[17,1] <= 2
 (21)[27,11]: 9 x[11,1] - 9 x[27,1] + 2 b[27,11] <= 2
 (21)[40,39]: 9 x[39,1] - 9 x[40,1] + 2 b[40,39] <= 2
 (21)[54,38]: 9 x[38,1] - 9 x[54,1] + 2 b[54,38] <= 2
 (21)[45,44]: 9 x[44,1] - 9 x[45,1] + 2 b[45,44] <= 2
 (21)[50,34]: 9 x[34,1] - 9 x[50,1] + 2 b[50,34] <= 2
 (21)[60,44]: 9 x[44,1] - 9 x[60,1] + 2 b[60,44] <= 2
 (21)[7,8]: - 9 x[7,1] + 9 x[8,1] + 2 b[7,8] <= 2
 (22)[0]: u[1,0] = 0
 (22)[1]: - 2 x[1,1] - u[1,17] - u[1,0] + u[2,1] = 0
 (22)[2]: - 2 x[2,1] - u[2,1] + u[3,2] - u[2,18] = 0
 (22)[3]: - 2 x[3,1] - u[3,19] - u[3,2] + u[4,3] = 0
 (22)[4]: - 2 x[4,1] - u[4,20] + u[5,4] - u[4,3] = 0
 (22)[5]: - 2 x[5,1] - u[5,21] - u[5,4] + u[6,5] = 0
 (22)[6]: - 2 x[6,1] - u[6,22] - u[6,5] + u[7,6] = 0
 (22)[7]: - 2 x[7,1] - u[7,23] - u[7,6] + u[8,7] = 0
 (22)[8]: - u[8,9] - u[8,24] - u[8,7] = 0
 (22)[9]: - 2 x[9,1] + u[8,9] - u[9,10] - u[9,25] = 0
 (22)[10]: - 2 x[10,1] + u[9,10] - u[10,26] - u[10,11] = 0
 (22)[11]: - 2 x[11,1] - u[11,27] + u[10,11] - u[11,12] = 0
 (22)[12]: - 2 x[12,1] - u[12,13] - u[12,28] + u[11,12] = 0
 (22)[13]: - 2 x[13,1] + u[12,13] - u[13,14] - u[13,29] = 0
 (22)[14]: - 2 x[14,1] - u[14,15] + u[13,14] - u[14,30] = 0
 (22)[15]: - 2 x[15,1] + u[14,15] - u[15,31] = 0
 (22)[16]: - 2 x[16,1] - u[16,17] - u[16,32] = 0
 (22)[17]: - 2 x[17,1] + u[1,17] + u[16,17] - u[17,18] - u[17,33] = 0
 (22)[18]: - 2 x[18,1] - u[18,19] + u[17,18] - u[18,34] + u[2,18] = 0
 (22)[19]: - 2 x[19,1] + u[18,19] + u[3,19] - u[19,20] - u[19,35] = 0
 (22)[20]: - 2 x[20,1] + u[4,20] + u[19,20] - u[20,21] - u[20,36] = 0
 (22)[21]: - 2 x[21,1] - u[21,37] + u[5,21] + u[20,21] - u[21,22] = 0
 (22)[22]: - 2 x[22,1] - u[22,23] + u[6,22] + u[21,22] - u[22,38] = 0
 (22)[23]: - 2 x[23,1] + u[7,23] + u[22,23] - u[23,24] - u[23,39] = 0
 (22)[24]: - 2 x[24,1] + u[23,24] - u[24,25] + u[8,24] - u[24,40] = 0
 (22)[25]: - 2 x[25,1] - u[25,41] + u[24,25] - u[25,26] + u[9,25] = 0
 (22)[26]: - 2 x[26,1] + u[10,26] + u[25,26] - u[26,27] - u[26,42] = 0
 (22)[27]: - 2 x[27,1] - u[27,43] + u[11,27] + u[26,27] - u[27,28] = 0
 (22)[28]: - 2 x[28,1] + u[12,28] + u[27,28] - u[28,29] - u[28,44] = 0
 (22)[29]: - 2 x[29,1] - u[29,45] + u[28,29] - u[29,30] + u[13,29] = 0
 (22)[30]: - 2 x[30,1] - u[30,46] + u[14,30] - u[30,31] + u[29,30] = 0
 (22)[31]: - 2 x[31,1] - u[31,47] + u[30,31] + u[15,31] = 0
 (22)[32]: - 2 x[32,1] - u[32,48] + u[16,32] - u[32,33] = 0
 (22)[33]: - 2 x[33,1] - u[33,49] + u[17,33] + u[32,33] - u[33,34] = 0
 (22)[34]: - 2 x[34,1] - u[34,50] + u[18,34] + u[33,34] - u[34,35] = 0
 (22)[35]: - 2 x[35,1] - u[35,51] + u[19,35] - u[35,36] + u[34,35] = 0
 (22)[36]: - 2 x[36,1] - u[36,52] + u[35,36] - u[36,37] + u[20,36] = 0
 (22)[37]: - 2 x[37,1] + u[21,37] - u[37,53] + u[36,37] - u[37,38] = 0
 (22)[38]: - 2 x[38,1] - u[38,39] - u[38,54] + u[22,38] + u[37,38] = 0
 (22)[39]: - 2 x[39,1] + u[38,39] - u[39,55] + u[23,39] - u[39,40] = 0
 (22)[40]: - 2 x[40,1] - u[40,41] - u[40,56] + u[24,40] + u[39,40] = 0
 (22)[41]: - 2 x[41,1] + u[25,41] + u[40,41] - u[41,42] - u[41,57] = 0
 (22)[42]: - 2 x[42,1] + u[41,42] - u[42,43] - u[42,58] + u[26,42] = 0
 (22)[43]: - 2 x[43,1] + u[27,43] + u[42,43] - u[43,59] - u[43,44] = 0
 (22)[44]: - 2 x[44,1] - u[44,45] - u[44,60] + u[28,44] + u[43,44] = 0
 (22)[45]: - 2 x[45,1] + u[44,45] + u[29,45] - u[45,46] - u[45,61] = 0
 (22)[46]: - 2 x[46,1] + u[30,46] + u[45,46] - u[46,47] - u[46,62] = 0
 (22)[47]: - 2 x[47,1] + u[31,47] + u[46,47] - u[47,63] = 0
 (22)[48]: - 2 x[48,1] - u[48,49] + u[32,48] = 0
 (22)[49]: - 2 x[49,1] + u[33,49] + u[48,49] - u[49,50] = 0
 (22)[50]: - 2 x[50,1] + u[49,50] - u[50,51] + u[34,50] = 0
 (22)[51]: - 2 x[51,1] + u[35,51] + u[50,51] - u[51,52] = 0
 (22)[52]: - 2 x[52,1] + u[36,52] + u[51,52] - u[52,53] = 0
 (22)[53]: - 2 x[53,1] + u[37,53] + u[52,53] - u[53,54] = 0
 (22)[54]: - 2 x[54,1] + u[38,54] + u[53,54] - u[54,55] = 0
 (22)[55]: - 2 x[55,1] - u[55,56] + u[39,55] + u[54,55] = 0
 (22)[56]: - 2 x[56,1] + u[40,56] + u[55,56] - u[56,57] = 0
 (22)[57]: - 2 x[57,1] + u[56,57] - u[57,58] + u[41,57] = 0
 (22)[58]: - 2 x[58,1] + u[57,58] + u[42,58] - u[58,59] = 0
 (22)[59]: - 2 x[59,1] + u[43,59] + u[58,59] - u[59,60] = 0
 (22)[60]: - 2 x[60,1] + u[44,60] - u[60,61] + u[59,60] = 0
 (22)[61]: - 2 x[61,1] + u[45,61] + u[60,61] - u[61,62] = 0
 (22)[62]: - 2 x[62,1] + u[61,62] - u[62,63] + u[46,62] = 0
 (22)[63]: - 2 x[63,1] + u[47,63] + u[62,63] = 0
 (22)[64]: = 1
 (23): = 121
 (24)[0]: v[0,1] = 0
 (24)[1]: - 2 x[1,1] + v[1,2] - v[0,1] - v[17,1] = 0
 (24)[2]: - 2 x[2,1] - v[18,2] - v[1,2] + v[2,3] = 0
 (24)[3]: - 2 x[3,1] - v[2,3] + v[3,4] - v[19,3] = 0
 (24)[4]: - 2 x[4,1] - v[3,4] - v[20,4] + v[4,5] = 0
 (24)[5]: - 2 x[5,1] + v[5,6] - v[4,5] - v[21,5] = 0
 (24)[6]: - 2 x[6,1] - v[5,6] - v[22,6] + v[6,7] = 0
 (24)[7]: - 2 x[7,1] - v[23,7] - v[6,7] + v[7,8] = 0
 (24)[8]: - v[9,8] - v[24,8] - v[7,8] = 0
 (24)[9]: - 2 x[9,1] + v[9,8] - v[10,9] - v[25,9] = 0
 (24)[10]: - 2 x[10,1] + v[10,9] - v[11,10] - v[26,10] = 0
 (24)[11]: - 2 x[11,1] + v[11,10] - v[12,11] - v[27,11] = 0
 (24)[12]: - 2 x[12,1] - v[28,12] - v[13,12] + v[12,11] = 0
 (24)[13]: - 2 x[13,1] - v[14,13] + v[13,12] - v[29,13] = 0
 (24)[14]: - 2 x[14,1] + v[14,13] - v[15,14] - v[30,14] = 0
 (24)[15]: - 2 x[15,1] + v[15,14] - v[31,15] = 0
 (24)[16]: - 2 x[16,1] - v[17,16] - v[32,16] = 0
 (24)[17]: - 2 x[17,1] - v[18,17] + v[17,16] - v[33,17] + v[17,1] = 0
 (24)[18]: - 2 x[18,1] + v[18,17] - v[19,18] - v[34,18] + v[18,2] = 0
 (24)[19]: - 2 x[19,1] + v[19,18] - v[35,19] - v[20,19] + v[19,3] = 0
 (24)[20]: - 2 x[20,1] - v[36,20] + v[20,19] - v[21,20] + v[20,4] = 0
 (24)[21]: - 2 x[21,1] - v[22,21] - v[37,21] + v[21,20] + v[21,5] = 0
 (24)[22]: - 2 x[22,1] + v[22,21] - v[23,22] - v[38,22] + v[22,6] = 0
 (24)[23]: - 2 x[23,1] + v[23,22] - v[24,23] - v[39,23] + v[23,7] = 0
 (24)[24]: - 2 x[24,1] + v[24,8] + v[24,23] - v[25,24] - v[40,24] = 0
 (24)[25]: - 2 x[25,1] - v[26,25] + v[25,24] - v[41,25] + v[25,9] = 0
 (24)[26]: - 2 x[26,1] + v[26,25] - v[27,26] - v[42,26] + v[26,10] = 0
 (24)[27]: - 2 x[27,1] - v[43,27] + v[27,26] - v[28,27] + v[27,11] = 0
 (24)[28]: - 2 x[28,1] + v[28,12] - v[44,28] + v[28,27] - v[29,28] = 0
 (24)[29]: - 2 x[29,1] + v[29,13] - v[30,29] + v[29,28] - v[45,29] = 0
 (24)[30]: - 2 x[30,1] + v[30,29] - v[31,30] - v[46,30] + v[30,14] = 0
 (24)[31]: - 2 x[31,1] + v[31,15] + v[31,30] - v[47,31] = 0
 (24)[32]: - 2 x[32,1] + v[32,16] - v[48,32] - v[33,32] = 0
 (24)[33]: - 2 x[33,1] + v[33,17] - v[49,33] + v[33,32] - v[34,33] = 0
 (24)[34]: - 2 x[34,1] + v[34,18] - v[35,34] + v[34,33] - v[50,34] = 0
 (24)[35]: - 2 x[35,1] + v[35,19] + v[35,34] - v[36,35] - v[51,35] = 0
 (24)[36]: - 2 x[36,1] + v[36,20] + v[36,35] - v[37,36] - v[52,36] = 0
 (24)[37]: - 2 x[37,1] + v[37,21] + v[37,36] - v[38,37] - v[53,37] = 0
 (24)[38]: - 2 x[38,1] + v[38,22] + v[38,37] - v[39,38] - v[54,38] = 0
 (24)[39]: - 2 x[39,1] + v[39,23] - v[55,39] + v[39,38] - v[40,39] = 0
 (24)[40]: - 2 x[40,1] - v[41,40] + v[40,24] - v[56,40] + v[40,39] = 0
 (24)[41]: - 2 x[41,1] + v[41,40] - v[42,41] - v[57,41] + v[41,25] = 0
 (24)[42]: - 2 x[42,1] + v[42,41] - v[58,42] + v[42,26] - v[43,42] = 0
 (24)[43]: - 2 x[43,1] - v[59,43] + v[43,27] + v[43,42] - v[44,43] = 0
 (24)[44]: - 2 x[44,1] + v[44,28] + v[44,43] - v[45,44] - v[60,44] = 0
 (24)[45]: - 2 x[45,1] - v[61,45] - v[46,45] + v[45,29] + v[45,44] = 0
 (24)[46]: - 2 x[46,1] - v[62,46] + v[46,45] + v[46,30] - v[47,46] = 0
 (24)[47]: - 2 x[47,1] - v[63,47] + v[47,31] + v[47,46] = 0
 (24)[48]: - 2 x[48,1] - v[49,48] + v[48,32] = 0
 (24)[49]: - 2 x[49,1] + v[49,48] - v[50,49] + v[49,33] = 0
 (24)[50]: - 2 x[50,1] + v[50,49] - v[51,50] + v[50,34] = 0
 (24)[51]: - 2 x[51,1] - v[52,51] + v[51,50] + v[51,35] = 0
 (24)[52]: - 2 x[52,1] + v[52,51] - v[53,52] + v[52,36] = 0
 (24)[53]: - 2 x[53,1] + v[53,52] - v[54,53] + v[53,37] = 0
 (24)[54]: - 2 x[54,1] - v[55,54] + v[54,53] + v[54,38] = 0
 (24)[55]: - 2 x[55,1] + v[55,54] - v[56,55] + v[55,39] = 0
 (24)[56]: - 2 x[56,1] + v[56,55] - v[57,56] + v[56,40] = 0
 (24)[57]: - 2 x[57,1] + v[57,41] + v[57,56] - v[58,57] = 0
 (24)[58]: - 2 x[58,1] + v[58,42] + v[58,57] - v[59,58] = 0
 (24)[59]: - 2 x[59,1] + v[59,43] - v[60,59] + v[59,58] = 0
 (24)[60]: - 2 x[60,1] + v[60,59] - v[61,60] + v[60,44] = 0
 (24)[61]: - 2 x[61,1] + v[61,45] + v[61,60] - v[62,61] = 0
 (24)[62]: - 2 x[62,1] + v[62,46] + v[62,61] - v[63,62] = 0
 (24)[63]: - 2 x[63,1] + v[63,47] + v[63,62] = 0
 (24)[64]: = 1
 (25): = 121
 (26b)[30,46]: - 125 a[30,46] + u[30,46] <= 0
 (26b)[44,45]: - 125 a[44,45] + u[44,45] <= 0
 (26b)[25,41]: - 125 a[25,41] + u[25,41] <= 0
 (26b)[35,51]: - 125 a[35,51] + u[35,51] <= 0
 (26b)[8,9]: - 125 a[8,9] + u[8,9] <= 0
 (26b)[40,41]: - 125 a[40,41] + u[40,41] <= 0
 (26b)[21,37]: - 125 a[21,37] + u[21,37] <= 0
 (26b)[31,47]: - 125 a[31,47] + u[31,47] <= 0
 (26b)[27,43]: - 125 a[27,43] + u[27,43] <= 0
 (26b)[41,42]: - 125 a[41,42] + u[41,42] <= 0
 (26b)[18,19]: - 125 a[18,19] + u[18,19] <= 0
 (26b)[14,15]: - 125 a[14,15] + u[14,15] <= 0
 (26b)[9,10]: - 125 a[9,10] + u[9,10] <= 0
 (26b)[5,21]: - 125 a[5,21] + u[5,21] <= 0
 (26b)[1,17]: - 125 a[1,17] + u[1,17] <= 0
 (26b)[42,43]: - 125 a[42,43] + u[42,43] <= 0
 (26b)[33,49]: - 125 a[33,49] + u[33,49] <= 0
 (26b)[38,39]: - 125 a[38,39] + u[38,39] <= 0
 (26b)[48,49]: - 125 a[48,49] + u[48,49] <= 0
 (26b)[29,45]: - 125 a[29,45] + u[29,45] <= 0
 (26b)[16,17]: - 125 a[16,17] + u[16,17] <= 0
 (26b)[7,23]: - 125 a[7,23] + u[7,23] <= 0
 (26b)[12,13]: - 125 a[12,13] + u[12,13] <= 0
 (26b)[22,23]: - 125 a[22,23] + u[22,23] <= 0
 (26b)[3,19]: - 125 a[3,19] + u[3,19] <= 0
 (26b)[49,50]: - 125 a[49,50] + u[49,50] <= 0
 (26b)[40,56]: - 125 a[40,56] + u[40,56] <= 0
 (26b)[13,14]: - 125 a[13,14] + u[13,14] <= 0
 (26b)[45,46]: - 125 a[45,46] + u[45,46] <= 0
 (26b)[55,56]: - 125 a[55,56] + u[55,56] <= 0
 (26b)[36,52]: - 125 a[36,52] + u[36,52] <= 0
 (26b)[50,51]: - 125 a[50,51] + u[50,51] <= 0
 (26b)[51,52]: - 125 a[51,52] + u[51,52] <= 0
 (26b)[32,48]: - 125 a[32,48] + u[32,48] <= 0
 (26b)[46,47]: - 125 a[46,47] + u[46,47] <= 0
 (26b)[23,24]: - 125 a[23,24] + u[23,24] <= 0
 (26b)[4,20]: - 125 a[4,20] + u[4,20] <= 0
 (26b)[14,30]: - 125 a[14,30] + u[14,30] <= 0
 (26b)[19,20]: - 125 a[19,20] + u[19,20] <= 0
 (26b)[10,26]: - 125 a[10,26] + u[10,26] <= 0
 (26b)[24,25]: - 125 a[24,25] + u[24,25] <= 0
 (26b)[56,57]: - 125 a[56,57] + u[56,57] <= 0
 (26b)[37,53]: - 125 a[37,53] + u[37,53] <= 0
 (26b)[47,63]: - 125 a[47,63] + u[47,63] <= 0
 (26b)[6,22]: - 125 a[6,22] + u[6,22] <= 0
 (26b)[20,21]: - 125 a[20,21] + u[20,21] <= 0
 (26b)[52,53]: - 125 a[52,53] + u[52,53] <= 0
 (26b)[43,59]: - 125 a[43,59] + u[43,59] <= 0
 (26b)[57,58]: - 125 a[57,58] + u[57,58] <= 0
 (26b)[38,54]: - 125 a[38,54] + u[38,54] <= 0
 (26b)[39,55]: - 125 a[39,55] + u[39,55] <= 0
 (26b)[53,54]: - 125 a[53,54] + u[53,54] <= 0
 (26b)[30,31]: - 125 a[30,31] + u[30,31] <= 0
 (26b)[34,50]: - 125 a[34,50] + u[34,50] <= 0
 (26b)[11,27]: - 125 a[11,27] + u[11,27] <= 0
 (26b)[25,26]: - 125 a[25,26] + u[25,26] <= 0
 (26b)[26,27]: - 125 a[26,27] + u[26,27] <= 0
 (26b)[5,4]: - 125 a[5,4] + u[5,4] <= 0
 (26b)[21,22]: - 125 a[21,22] + u[21,22] <= 0
 (26b)[12,28]: - 125 a[12,28] + u[12,28] <= 0
 (26b)[44,60]: - 125 a[44,60] + u[44,60] <= 0
 (26b)[1,0]: - 125 a[1,0] + u[1,0] <= 0
 (26b)[17,18]: - 125 a[17,18] + u[17,18] <= 0
 (26b)[27,28]: - 125 a[27,28] + u[27,28] <= 0
 (26b)[8,24]: - 125 a[8,24] + u[8,24] <= 0
 (26b)[54,55]: - 125 a[54,55] + u[54,55] <= 0
 (26b)[45,61]: - 125 a[45,61] + u[45,61] <= 0
 (26b)[60,61]: - 125 a[60,61] + u[60,61] <= 0
 (26b)[41,57]: - 125 a[41,57] + u[41,57] <= 0
 (26b)[18,34]: - 125 a[18,34] + u[18,34] <= 0
 (26b)[2,1]: - 125 a[2,1] + u[2,1] <= 0
 (26b)[28,29]: - 125 a[28,29] + u[28,29] <= 0
 (26b)[9,25]: - 125 a[9,25] + u[9,25] <= 0
 (26b)[19,35]: - 125 a[19,35] + u[19,35] <= 0
 (26b)[3,2]: - 125 a[3,2] + u[3,2] <= 0
 (26b)[15,31]: - 125 a[15,31] + u[15,31] <= 0
 (26b)[29,30]: - 125 a[29,30] + u[29,30] <= 0
 (26b)[61,62]: - 125 a[61,62] + u[61,62] <= 0
 (26b)[42,58]: - 125 a[42,58] + u[42,58] <= 0
 (26b)[62,63]: - 125 a[62,63] + u[62,63] <= 0
 (26b)[58,59]: - 125 a[58,59] + u[58,59] <= 0
 (26b)[4,3]: - 125 a[4,3] + u[4,3] <= 0
 (26b)[35,36]: - 125 a[35,36] + u[35,36] <= 0
 (26b)[16,32]: - 125 a[16,32] + u[16,32] <= 0
 (26b)[26,42]: - 125 a[26,42] + u[26,42] <= 0
 (26b)[22,38]: - 125 a[22,38] + u[22,38] <= 0
 (26b)[36,37]: - 125 a[36,37] + u[36,37] <= 0
 (26b)[17,33]: - 125 a[17,33] + u[17,33] <= 0
 (26b)[6,5]: - 125 a[6,5] + u[6,5] <= 0
 (26b)[32,33]: - 125 a[32,33] + u[32,33] <= 0
 (26b)[13,29]: - 125 a[13,29] + u[13,29] <= 0
 (26b)[59,60]: - 125 a[59,60] + u[59,60] <= 0
 (26b)[10,11]: - 125 a[10,11] + u[10,11] <= 0
 (26b)[46,62]: - 125 a[46,62] + u[46,62] <= 0
 (26b)[23,39]: - 125 a[23,39] + u[23,39] <= 0
 (26b)[37,38]: - 125 a[37,38] + u[37,38] <= 0
 (26b)[28,44]: - 125 a[28,44] + u[28,44] <= 0
 (26b)[7,6]: - 125 a[7,6] + u[7,6] <= 0
 (26b)[33,34]: - 125 a[33,34] + u[33,34] <= 0
 (26b)[43,44]: - 125 a[43,44] + u[43,44] <= 0
 (26b)[24,40]: - 125 a[24,40] + u[24,40] <= 0
 (26b)[8,7]: - 125 a[8,7] + u[8,7] <= 0
 (26b)[39,40]: - 125 a[39,40] + u[39,40] <= 0
 (26b)[20,36]: - 125 a[20,36] + u[20,36] <= 0
 (26b)[34,35]: - 125 a[34,35] + u[34,35] <= 0
 (26b)[11,12]: - 125 a[11,12] + u[11,12] <= 0
 (26b)[2,18]: - 125 a[2,18] + u[2,18] <= 0
 (27b)[41,40]: - 125 b[41,40] + v[41,40] <= 0
 (27b)[18,17]: - 125 b[18,17] + v[18,17] <= 0
 (27b)[14,13]: - 125 b[14,13] + v[14,13] <= 0
 (27b)[28,12]: - 125 b[28,12] + v[28,12] <= 0
 (27b)[9,8]: - 125 b[9,8] + v[9,8] <= 0
 (27b)[19,18]: - 125 b[19,18] + v[19,18] <= 0
 (27b)[24,8]: - 125 b[24,8] + v[24,8] <= 0
 (27b)[15,14]: - 125 b[15,14] + v[15,14] <= 0
 (27b)[61,45]: - 125 b[61,45] + v[61,45] <= 0
 (27b)[42,41]: - 125 b[42,41] + v[42,41] <= 0
 (27b)[52,51]: - 125 b[52,51] + v[52,51] <= 0
 (27b)[57,41]: - 125 b[57,41] + v[57,41] <= 0
 (27b)[62,46]: - 125 b[62,46] + v[62,46] <= 0
 (27b)[58,42]: - 125 b[58,42] + v[58,42] <= 0
 (27b)[35,19]: - 125 b[35,19] + v[35,19] <= 0
 (27b)[26,25]: - 125 b[26,25] + v[26,25] <= 0
 (27b)[31,15]: - 125 b[31,15] + v[31,15] <= 0
 (27b)[22,21]: - 125 b[22,21] + v[22,21] <= 0
 (27b)[36,20]: - 125 b[36,20] + v[36,20] <= 0
 (27b)[17,16]: - 125 b[17,16] + v[17,16] <= 0
 (27b)[49,48]: - 125 b[49,48] + v[49,48] <= 0
 (27b)[63,47]: - 125 b[63,47] + v[63,47] <= 0
 (27b)[32,16]: - 125 b[32,16] + v[32,16] <= 0
 (27b)[13,12]: - 125 b[13,12] + v[13,12] <= 0
 (27b)[59,43]: - 125 b[59,43] + v[59,43] <= 0
 (27b)[55,54]: - 125 b[55,54] + v[55,54] <= 0
 (27b)[50,49]: - 125 b[50,49] + v[50,49] <= 0
 (27b)[51,50]: - 125 b[51,50] + v[51,50] <= 0
 (27b)[46,45]: - 125 b[46,45] + v[46,45] <= 0
 (27b)[23,22]: - 125 b[23,22] + v[23,22] <= 0
 (27b)[37,21]: - 125 b[37,21] + v[37,21] <= 0
 (27b)[33,17]: - 125 b[33,17] + v[33,17] <= 0
 (27b)[43,27]: - 125 b[43,27] + v[43,27] <= 0
 (27b)[24,23]: - 125 b[24,23] + v[24,23] <= 0
 (27b)[56,55]: - 125 b[56,55] + v[56,55] <= 0
 (27b)[29,13]: - 125 b[29,13] + v[29,13] <= 0
 (27b)[39,23]: - 125 b[39,23] + v[39,23] <= 0
 (27b)[20,19]: - 125 b[20,19] + v[20,19] <= 0
 (27b)[34,18]: - 125 b[34,18] + v[34,18] <= 0
 (27b)[57,56]: - 125 b[57,56] + v[57,56] <= 0
 (27b)[53,52]: - 125 b[53,52] + v[53,52] <= 0
 (27b)[30,29]: - 125 b[30,29] + v[30,29] <= 0
 (27b)[44,28]: - 125 b[44,28] + v[44,28] <= 0
 (27b)[25,24]: - 125 b[25,24] + v[25,24] <= 0
 (27b)[40,24]: - 125 b[40,24] + v[40,24] <= 0
 (27b)[21,20]: - 125 b[21,20] + v[21,20] <= 0
 (27b)[31,30]: - 125 b[31,30] + v[31,30] <= 0
 (27b)[27,26]: - 125 b[27,26] + v[27,26] <= 0
 (27b)[41,25]: - 125 b[41,25] + v[41,25] <= 0
 (27b)[18,2]: - 125 b[18,2] + v[18,2] <= 0
 (27b)[54,53]: - 125 b[54,53] + v[54,53] <= 0
 (27b)[60,59]: - 125 b[60,59] + v[60,59] <= 0
 (27b)[47,31]: - 125 b[47,31] + v[47,31] <= 0
 (27b)[28,27]: - 125 b[28,27] + v[28,27] <= 0
 (27b)[42,26]: - 125 b[42,26] + v[42,26] <= 0
 (27b)[38,22]: - 125 b[38,22] + v[38,22] <= 0
 (27b)[48,32]: - 125 b[48,32] + v[48,32] <= 0
 (27b)[29,28]: - 125 b[29,28] + v[29,28] <= 0
 (27b)[5,6]: - 125 b[5,6] + v[5,6] <= 0
 (27b)[61,60]: - 125 b[61,60] + v[61,60] <= 0
 (27b)[1,2]: - 125 b[1,2] + v[1,2] <= 0
 (27b)[62,61]: - 125 b[62,61] + v[62,61] <= 0
 (27b)[22,6]: - 125 b[22,6] + v[22,6] <= 0
 (27b)[58,57]: - 125 b[58,57] + v[58,57] <= 0
 (27b)[35,34]: - 125 b[35,34] + v[35,34] <= 0
 (27b)[49,33]: - 125 b[49,33] + v[49,33] <= 0
 (27b)[45,29]: - 125 b[45,29] + v[45,29] <= 0
 (27b)[55,39]: - 125 b[55,39] + v[55,39] <= 0
 (27b)[2,3]: - 125 b[2,3] + v[2,3] <= 0
 (27b)[36,35]: - 125 b[36,35] + v[36,35] <= 0
 (27b)[63,62]: - 125 b[63,62] + v[63,62] <= 0
 (27b)[51,35]: - 125 b[51,35] + v[51,35] <= 0
 (27b)[46,30]: - 125 b[46,30] + v[46,30] <= 0
 (27b)[23,7]: - 125 b[23,7] + v[23,7] <= 0
 (27b)[3,4]: - 125 b[3,4] + v[3,4] <= 0
 (27b)[59,58]: - 125 b[59,58] + v[59,58] <= 0
 (27b)[19,3]: - 125 b[19,3] + v[19,3] <= 0
 (27b)[10,9]: - 125 b[10,9] + v[10,9] <= 0
 (27b)[56,40]: - 125 b[56,40] + v[56,40] <= 0
 (27b)[37,36]: - 125 b[37,36] + v[37,36] <= 0
 (27b)[47,46]: - 125 b[47,46] + v[47,46] <= 0
 (27b)[20,4]: - 125 b[20,4] + v[20,4] <= 0
 (27b)[52,36]: - 125 b[52,36] + v[52,36] <= 0
 (27b)[33,32]: - 125 b[33,32] + v[33,32] <= 0
 (27b)[43,42]: - 125 b[43,42] + v[43,42] <= 0
 (27b)[4,5]: - 125 b[4,5] + v[4,5] <= 0
 (27b)[38,37]: - 125 b[38,37] + v[38,37] <= 0
 (27b)[39,38]: - 125 b[39,38] + v[39,38] <= 0
 (27b)[53,37]: - 125 b[53,37] + v[53,37] <= 0
 (27b)[0,1]: - 125 b[0,1] + v[0,1] <= 0
 (27b)[34,33]: - 125 b[34,33] + v[34,33] <= 0
 (27b)[30,14]: - 125 b[30,14] + v[30,14] <= 0
 (27b)[11,10]: - 125 b[11,10] + v[11,10] <= 0
 (27b)[25,9]: - 125 b[25,9] + v[25,9] <= 0
 (27b)[26,10]: - 125 b[26,10] + v[26,10] <= 0
 (27b)[6,7]: - 125 b[6,7] + v[6,7] <= 0
 (27b)[21,5]: - 125 b[21,5] + v[21,5] <= 0
 (27b)[12,11]: - 125 b[12,11] + v[12,11] <= 0
 (27b)[44,43]: - 125 b[44,43] + v[44,43] <= 0
 (27b)[17,1]: - 125 b[17,1] + v[17,1] <= 0
 (27b)[27,11]: - 125 b[27,11] + v[27,11] <= 0
 (27b)[40,39]: - 125 b[40,39] + v[40,39] <= 0
 (27b)[54,38]: - 125 b[54,38] + v[54,38] <= 0
 (27b)[45,44]: - 125 b[45,44] + v[45,44] <= 0
 (27b)[50,34]: - 125 b[50,34] + v[50,34] <= 0
 (27b)[60,44]: - 125 b[60,44] + v[60,44] <= 0
 (27b)[7,8]: - 125 b[7,8] + v[7,8] <= 0
 (28a)[0]: a[1,0] = 1
 (28a)[1]: a[2,1] = 1
 (28a)[2]: a[3,2] = 1
 (28a)[3]: a[4,3] = 1
 (28a)[4]: a[5,4] = 1
 (28a)[5]: a[6,5] = 1
 (28a)[6]: a[7,6] = 1
 (28a)[7]: a[8,7] = 1
 (28a)[8]: = 1
 (28a)[9]: a[8,9] = 1
 (28a)[10]: a[9,10] = 1
 (28a)[11]: a[10,11] = 1
 (28a)[12]: a[11,12] = 1
 (28a)[13]: a[12,13] = 1
 (28a)[14]: a[13,14] = 1
 (28a)[15]: a[14,15] = 1
 (28a)[16]: = 1
 (28a)[17]: a[1,17] + a[16,17] = 1
 (28a)[18]: a[17,18] + a[2,18] = 1
 (28a)[19]: a[18,19] + a[3,19] = 1
 (28a)[20]: a[4,20] + a[19,20] = 1
 (28a)[21]: a[5,21] + a[20,21] = 1
 (28a)[22]: a[6,22] + a[21,22] = 1
 (28a)[23]: a[7,23] + a[22,23] = 1
 (28a)[24]: a[23,24] + a[8,24] = 1
 (28a)[25]: a[24,25] + a[9,25] = 1
 (28a)[26]: a[10,26] + a[25,26] = 1
 (28a)[27]: a[11,27] + a[26,27] = 1
 (28a)[28]: a[12,28] + a[27,28] = 1
 (28a)[29]: a[28,29] + a[13,29] = 1
 (28a)[30]: a[14,30] + a[29,30] = 1
 (28a)[31]: a[30,31] + a[15,31] = 1
 (28a)[32]: a[16,32] = 1
 (28a)[33]: a[17,33] + a[32,33] = 1
 (28a)[34]: a[18,34] + a[33,34] = 1
 (28a)[35]: a[19,35] + a[34,35] = 1
 (28a)[36]: a[35,36] + a[20,36] = 1
 (28a)[37]: a[21,37] + a[36,37] = 1
 (28a)[38]: a[22,38] + a[37,38] = 1
 (28a)[39]: a[38,39] + a[23,39] = 1
 (28a)[40]: a[24,40] + a[39,40] = 1
 (28a)[41]: a[25,41] + a[40,41] = 1
 (28a)[42]: a[41,42] + a[26,42] = 1
 (28a)[43]: a[27,43] + a[42,43] = 1
 (28a)[44]: a[28,44] + a[43,44] = 1
 (28a)[45]: a[44,45] + a[29,45] = 1
 (28a)[46]: a[30,46] + a[45,46] = 1
 (28a)[47]: a[31,47] + a[46,47] = 1
 (28a)[48]: a[32,48] = 1
 (28a)[49]: a[33,49] + a[48,49] = 1
 (28a)[50]: a[49,50] + a[34,50] = 1
 (28a)[51]: a[35,51] + a[50,51] = 1
 (28a)[52]: a[36,52] + a[51,52] = 1
 (28a)[53]: a[37,53] + a[52,53] = 1
 (28a)[54]: a[38,54] + a[53,54] = 1
 (28a)[55]: a[39,55] + a[54,55] = 1
 (28a)[56]: a[40,56] + a[55,56] = 1
 (28a)[57]: a[56,57] + a[41,57] = 1
 (28a)[58]: a[57,58] + a[42,58] = 1
 (28a)[59]: a[43,59] + a[58,59] = 1
 (28a)[60]: a[44,60] + a[59,60] = 1
 (28a)[61]: a[45,61] + a[60,61] = 1
 (28a)[62]: a[61,62] + a[46,62] = 1
 (28a)[63]: a[47,63] + a[62,63] = 1
 (28a)[64]: = 1
 (28b)[0]: b[0,1] = 1
 (28b)[1]: b[1,2] = 1
 (28b)[2]: b[2,3] = 1
 (28b)[3]: b[3,4] = 1
 (28b)[4]: b[4,5] = 1
 (28b)[5]: b[5,6] = 1
 (28b)[6]: b[6,7] = 1
 (28b)[7]: b[7,8] = 1
 (28b)[8]: = 1
 (28b)[9]: b[9,8] = 1
 (28b)[10]: b[10,9] = 1
 (28b)[11]: b[11,10] = 1
 (28b)[12]: b[12,11] = 1
 (28b)[13]: b[13,12] = 1
 (28b)[14]: b[14,13] = 1
 (28b)[15]: b[15,14] = 1
 (28b)[16]: = 1
 (28b)[17]: b[17,16] + b[17,1] = 1
 (28b)[18]: b[18,17] + b[18,2] = 1
 (28b)[19]: b[19,18] + b[19,3] = 1
 (28b)[20]: b[20,19] + b[20,4] = 1
 (28b)[21]: b[21,20] + b[21,5] = 1
 (28b)[22]: b[22,21] + b[22,6] = 1
 (28b)[23]: b[23,22] + b[23,7] = 1
 (28b)[24]: b[24,8] + b[24,23] = 1
 (28b)[25]: b[25,24] + b[25,9] = 1
 (28b)[26]: b[26,25] + b[26,10] = 1
 (28b)[27]: b[27,26] + b[27,11] = 1
 (28b)[28]: b[28,12] + b[28,27] = 1
 (28b)[29]: b[29,13] + b[29,28] = 1
 (28b)[30]: b[30,29] + b[30,14] = 1
 (28b)[31]: b[31,15] + b[31,30] = 1
 (28b)[32]: b[32,16] = 1
 (28b)[33]: b[33,17] + b[33,32] = 1
 (28b)[34]: b[34,18] + b[34,33] = 1
 (28b)[35]: b[35,19] + b[35,34] = 1
 (28b)[36]: b[36,20] + b[36,35] = 1
 (28b)[37]: b[37,21] + b[37,36] = 1
 (28b)[38]: b[38,22] + b[38,37] = 1
 (28b)[39]: b[39,23] + b[39,38] = 1
 (28b)[40]: b[40,24] + b[40,39] = 1
 (28b)[41]: b[41,40] + b[41,25] = 1
 (28b)[42]: b[42,41] + b[42,26] = 1
 (28b)[43]: b[43,27] + b[43,42] = 1
 (28b)[44]: b[44,28] + b[44,43] = 1
 (28b)[45]: b[45,29] + b[45,44] = 1
 (28b)[46]: b[46,45] + b[46,30] = 1
 (28b)[47]: b[47,31] + b[47,46] = 1
 (28b)[48]: b[48,32] = 1
 (28b)[49]: b[49,48] + b[49,33] = 1
 (28b)[50]: b[50,49] + b[50,34] = 1
 (28b)[51]: b[51,50] + b[51,35] = 1
 (28b)[52]: b[52,51] + b[52,36] = 1
 (28b)[53]: b[53,52] + b[53,37] = 1
 (28b)[54]: b[54,53] + b[54,38] = 1
 (28b)[55]: b[55,54] + b[55,39] = 1
 (28b)[56]: b[56,55] + b[56,40] = 1
 (28b)[57]: b[57,41] + b[57,56] = 1
 (28b)[58]: b[58,42] + b[58,57] = 1
 (28b)[59]: b[59,43] + b[59,58] = 1
 (28b)[60]: b[60,59] + b[60,44] = 1
 (28b)[61]: b[61,45] + b[61,60] = 1
 (28b)[62]: b[62,46] + b[62,61] = 1
 (28b)[63]: b[63,47] + b[63,62] = 1
 (28b)[64]: = 1
Bounds
Binaries
 x[0,1] x[1,1] x[2,1] x[3,1] x[4,1] x[5,1] x[6,1] x[7,1] x[8,1] x[9,1]
 x[10,1] x[11,1] x[12,1] x[13,1] x[14,1] x[15,1] x[16,1] x[17,1] x[18,1]
 x[19,1] x[20,1] x[21,1] x[22,1] x[23,1] x[24,1] x[25,1] x[26,1] x[27,1]
 x[28,1] x[29,1] x[30,1] x[31,1] x[32,1] x[33,1] x[34,1] x[35,1] x[36,1]
 x[37,1] x[38,1] x[39,1] x[40,1] x[41,1] x[42,1] x[43,1] x[44,1] x[45,1]
 x[46,1] x[47,1] x[48,1] x[49,1] x[50,1] x[51,1] x[52,1] x[53,1] x[54,1]
 x[55,1] x[56,1] x[57,1] x[58,1] x[59,1] x[60,1] x[61,1] x[62,1] x[63,1]
 a[30,46] a[44,45] a[25,41] a[35,51] a[8,9] a[40,41] a[21,37] a[31,47]
 a[27,43] a[41,42] a[18,19] a[14,15] a[9,10] a[5,21] a[1,17] a[42,43]
 a[33,49] a[38,39] a[48,49] a[29,45] a[16,17] a[7,23] a[12,13] a[22,23]
 a[3,19] a[49,50] a[40,56] a[13,14] a[45,46] a[55,56] a[36,52] a[50,51]
 a[51,52] a[32,48] a[46,47] a[23,24] a[4,20] a[14,30] a[19,20] a[10,26]
 a[24,25] a[56,57] a[37,53] a[47,63] a[6,22] a[20,21] a[52,53] a[43,59]
 a[57,58] a[38,54] a[39,55] a[53,54] a[30,31] a[34,50] a[11,27] a[25,26]
 a[26,27] a[5,4] a[21,22] a[12,28] a[44,60] a[1,0] a[17,18] a[27,28]
 a[8,24] a[54,55] a[45,61] a[60,61] a[41,57] a[18,34] a[2,1] a[28,29]
 a[9,25] a[19,35] a[3,2] a[15,31] a[29,30] a[61,62] a[42,58] a[62,63]
 a[58,59] a[4,3] a[35,36] a[16,32] a[26,42] a[22,38] a[36,37] a[17,33]
 a[6,5] a[32,33] a[13,29] a[59,60] a[10,11] a[46,62] a[23,39] a[37,38]
 a[28,44] a[7,6] a[33,34] a[43,44] a[24,40] a[8,7] a[39,40] a[20,36]
 a[34,35] a[11,12] a[2,18] b[41,40] b[18,17] b[14,13] b[28,12] b[9,8]
 b[19,18] b[24,8] b[15,14] b[61,45] b[42,41] b[52,51] b[57,41] b[62,46]
 b[58,42] b[35,19] b[26,25] b[31,15] b[22,21] b[36,20] b[17,16] b[49,48]
 b[63,47] b[32,16] b[13,12] b[59,43] b[55,54] b[50,49] b[51,50] b[46,45]
 b[23,22] b[37,21] b[33,17] b[43,27] b[24,23] b[56,55] b[29,13] b[39,23]
 b[20,19] b[34,18] b[57,56] b[53,52] b[30,29] b[44,28] b[25,24] b[40,24]
 b[21,20] b[31,30] b[27,26] b[41,25] b[18,2] b[54,53] b[60,59] b[47,31]
 b[28,27] b[42,26] b[38,22] b[48,32] b[29,28] b[5,6] b[61,60] b[1,2]
 b[62,61] b[22,6] b[58,57] b[35,34] b[49,33] b[45,29] b[55,39] b[2,3]
 b[36,35] b[63,62] b[51,35] b[46,30] b[23,7] b[3,4] b[59,58] b[19,3]
 b[10,9] b[56,40] b[37,36] b[47,46] b[20,4] b[52,36] b[33,32] b[43,42]
 b[4,5] b[38,37] b[39,38] b[53,37] b[0,1] b[34,33] b[30,14] b[11,10]
 b[25,9] b[26,10] b[6,7] b[21,5] b[12,11] b[44,43] b[17,1] b[27,11]
 b[40,39] b[54,38] b[45,44] b[50,34] b[60,44] b[7,8]
End
